p cnf 968 2487
51 -701 -702 0
-51 701 0
-51 702 0
52 -51 -3 0
-52 51 0
-52 3 0
53 -703 -4 0
-53 703 0
-53 4 0
54 -53 -6 0
-54 53 0
-54 6 0
55 -704 -705 0
-55 704 0
-55 705 0
56 -7 -702 0
-56 7 0
-56 702 0
57 -56 -706 0
-57 56 0
-57 706 0
58 -707 -55 0
-58 707 0
-58 55 0
59 -10 -9 0
-59 10 0
-59 9 0
60 -59 -11 0
-60 59 0
-60 11 0
61 -708 -58 0
-61 708 0
-61 58 0
62 -709 -12 0
-62 709 0
-62 12 0
63 -62 -710 0
-63 62 0
-63 710 0
64 -711 -61 0
-64 711 0
-64 61 0
65 -16 -712 0
-65 16 0
-65 712 0
66 -65 -17 0
-66 65 0
-66 17 0
67 -713 -64 0
-67 713 0
-67 64 0
68 -714 -13 0
-68 714 0
-68 13 0
69 -68 -2 0
-69 68 0
-69 2 0
70 -715 -67 0
-70 715 0
-70 67 0
71 -20 -716 0
-71 20 0
-71 716 0
72 -71 -717 0
-72 71 0
-72 717 0
73 -718 -70 0
-73 718 0
-73 70 0
74 -23 -719 0
-74 23 0
-74 719 0
75 -74 -14 0
-75 74 0
-75 14 0
76 -720 -73 0
-76 720 0
-76 73 0
77 -24 -5 0
-77 24 0
-77 5 0
78 -77 -706 0
-78 77 0
-78 706 0
79 -721 -76 0
-79 721 0
-79 76 0
80 -26 -25 0
-80 26 0
-80 25 0
81 -80 -27 0
-81 80 0
-81 27 0
82 -722 -79 0
-82 722 0
-82 79 0
83 -28 -1 0
-83 28 0
-83 1 0
84 -83 -723 0
-84 83 0
-84 723 0
85 -724 -82 0
-85 724 0
-85 82 0
86 -28 -20 0
-86 28 0
-86 20 0
87 -86 -29 0
-87 86 0
-87 29 0
88 -725 -85 0
-88 725 0
-88 85 0
89 -30 -714 0
-89 30 0
-89 714 0
90 -89 -726 0
-90 89 0
-90 726 0
91 -727 -88 0
-91 727 0
-91 88 0
92 -26 -703 0
-92 26 0
-92 703 0
93 -92 -706 0
-93 92 0
-93 706 0
94 -728 -91 0
-94 728 0
-94 91 0
95 -32 -729 0
-95 32 0
-95 729 0
96 -95 -3 0
-96 95 0
-96 3 0
97 -730 -94 0
-97 730 0
-97 94 0
98 -731 -714 0
-98 731 0
-98 714 0
99 -98 -11 0
-99 98 0
-99 11 0
100 -732 -97 0
-100 732 0
-100 97 0
101 -709 -733 0
-101 709 0
-101 733 0
102 -101 -18 0
-102 101 0
-102 18 0
103 -734 -100 0
-103 734 0
-103 100 0
104 -29 -23 0
-104 29 0
-104 23 0
105 -104 -735 0
-105 104 0
-105 735 0
106 -736 -103 0
-106 736 0
-106 103 0
107 -35 -737 0
-107 35 0
-107 737 0
108 -107 -2 0
-108 107 0
-108 2 0
109 -738 -106 0
-109 738 0
-109 106 0
110 -35 -10 0
-110 35 0
-110 10 0
111 -110 -27 0
-111 110 0
-111 27 0
112 -739 -109 0
-112 739 0
-112 109 0
113 -740 -36 0
-113 740 0
-113 36 0
114 -113 -709 0
-114 113 0
-114 709 0
115 -741 -112 0
-115 741 0
-115 112 0
116 -13 -701 0
-116 13 0
-116 701 0
117 -116 -38 0
-117 116 0
-117 38 0
118 -742 -115 0
-118 742 0
-118 115 0
119 -37 -743 0
-119 37 0
-119 743 0
120 -119 -744 0
-120 119 0
-120 744 0
121 -745 -118 0
-121 745 0
-121 118 0
122 -746 -747 0
-122 746 0
-122 747 0
123 -122 -17 0
-123 122 0
-123 17 0
124 -748 -121 0
-124 748 0
-124 121 0
125 -41 -702 0
-125 41 0
-125 702 0
126 -125 -3 0
-126 125 0
-126 3 0
127 -749 -124 0
-127 749 0
-127 124 0
128 -735 -17 0
-128 735 0
-128 17 0
129 -128 -706 0
-129 128 0
-129 706 0
130 -750 -127 0
-130 750 0
-130 127 0
131 -751 -9 0
-131 751 0
-131 9 0
132 -131 -13 0
-132 131 0
-132 13 0
133 -752 -130 0
-133 752 0
-133 130 0
134 -753 -22 0
-134 753 0
-134 22 0
135 -134 -737 0
-135 134 0
-135 737 0
136 -754 -133 0
-136 754 0
-136 133 0
137 -755 -714 0
-137 755 0
-137 714 0
138 -137 -32 0
-138 137 0
-138 32 0
139 -756 -136 0
-139 756 0
-139 136 0
140 -751 -746 0
-140 751 0
-140 746 0
141 -140 -7 0
-141 140 0
-141 7 0
142 -757 -139 0
-142 757 0
-142 139 0
143 -28 -733 0
-143 28 0
-143 733 0
144 -143 -30 0
-144 143 0
-144 30 0
145 -758 -142 0
-145 758 0
-145 142 0
146 -43 -759 0
-146 43 0
-146 759 0
147 -146 -760 0
-147 146 0
-147 760 0
148 -761 -145 0
-148 761 0
-148 145 0
149 -45 -44 0
-149 45 0
-149 44 0
150 -149 -46 0
-150 149 0
-150 46 0
151 -762 -148 0
-151 762 0
-151 148 0
152 -763 -20 0
-152 763 0
-152 20 0
153 -152 -39 0
-153 152 0
-153 39 0
154 -764 -151 0
-154 764 0
-154 151 0
155 -765 -755 0
-155 765 0
-155 755 0
156 -155 -766 0
-156 155 0
-156 766 0
157 -767 -154 0
-157 767 0
-157 154 0
158 -768 -763 0
-158 768 0
-158 763 0
159 -158 -735 0
-159 158 0
-159 735 0
160 -769 -157 0
-160 769 0
-160 157 0
161 -770 -702 0
-161 770 0
-161 702 0
162 -161 -747 0
-162 161 0
-162 747 0
163 -771 -160 0
-163 771 0
-163 160 0
164 -726 -729 0
-164 726 0
-164 729 0
165 -164 -17 0
-165 164 0
-165 17 0
166 -772 -163 0
-166 772 0
-166 163 0
167 -14 -10 0
-167 14 0
-167 10 0
168 -167 -773 0
-168 167 0
-168 773 0
169 -774 -166 0
-169 774 0
-169 166 0
170 -735 -766 0
-170 735 0
-170 766 0
171 -170 -706 0
-171 170 0
-171 706 0
172 -775 -169 0
-172 775 0
-172 169 0
173 -45 -35 0
-173 45 0
-173 35 0
174 -173 -776 0
-174 173 0
-174 776 0
175 -777 -172 0
-175 777 0
-175 172 0
176 -46 -29 0
-176 46 0
-176 29 0
177 -176 -48 0
-177 176 0
-177 48 0
178 -778 -175 0
-178 778 0
-178 175 0
179 -49 -703 0
-179 49 0
-179 703 0
180 -179 -723 0
-180 179 0
-180 723 0
181 -779 -178 0
-181 779 0
-181 178 0
182 -780 -13 0
-182 780 0
-182 13 0
183 -182 -781 0
-183 182 0
-183 781 0
184 -782 -181 0
-184 782 0
-184 181 0
185 -783 -6 0
-185 783 0
-185 6 0
186 -185 -27 0
-186 185 0
-186 27 0
187 -784 -184 0
-187 784 0
-187 184 0
188 -785 -9 0
-188 785 0
-188 9 0
189 -188 -7 0
-189 188 0
-189 7 0
190 -786 -187 0
-190 786 0
-190 187 0
191 -781 -714 0
-191 781 0
-191 714 0
192 -191 -48 0
-192 191 0
-192 48 0
193 -787 -190 0
-193 787 0
-193 190 0
194 -42 -23 0
-194 42 0
-194 23 0
195 -194 -2 0
-195 194 0
-195 2 0
196 -788 -193 0
-196 788 0
-196 193 0
197 -746 -16 0
-197 746 0
-197 16 0
198 -197 -766 0
-198 197 0
-198 766 0
199 -789 -196 0
-199 789 0
-199 196 0
200 -746 -714 0
-200 746 0
-200 714 0
201 -200 -23 0
-201 200 0
-201 23 0
202 -790 -199 0
-202 790 0
-202 199 0
203 -19 -785 0
-203 19 0
-203 785 0
204 -203 -39 0
-204 203 0
-204 39 0
205 -791 -202 0
-205 791 0
-205 202 0
206 -746 -792 0
-206 746 0
-206 792 0
207 -206 -747 0
-207 206 0
-207 747 0
208 -793 -205 0
-208 793 0
-208 205 0
209 -28 -743 0
-209 28 0
-209 743 0
210 -209 -22 0
-210 209 0
-210 22 0
211 -794 -208 0
-211 794 0
-211 208 0
212 -28 -9 0
-212 28 0
-212 9 0
213 -212 -766 0
-213 212 0
-213 766 0
214 -795 -211 0
-214 795 0
-214 211 0
215 -50 -706 0
-215 50 0
-215 706 0
216 -215 -3 0
-216 215 0
-216 3 0
217 -796 -214 0
-217 796 0
-217 214 0
218 -755 -16 0
-218 755 0
-218 16 0
219 -218 -11 0
-219 218 0
-219 11 0
220 -797 -217 0
-220 797 0
-220 217 0
221 -735 -9 0
-221 735 0
-221 9 0
222 -221 -798 0
-222 221 0
-222 798 0
223 -799 -220 0
-223 799 0
-223 220 0
224 -768 -15 0
-224 768 0
-224 15 0
225 -224 -20 0
-225 224 0
-225 20 0
226 -800 -223 0
-226 800 0
-226 223 0
227 -801 -7 0
-227 801 0
-227 7 0
228 -227 -701 0
-228 227 0
-228 701 0
229 -802 -226 0
-229 802 0
-229 226 0
230 -45 -34 0
-230 45 0
-230 34 0
231 -230 -32 0
-231 230 0
-231 32 0
232 -803 -229 0
-232 803 0
-232 229 0
233 -28 -10 0
-233 28 0
-233 10 0
234 -233 -34 0
-234 233 0
-234 34 0
235 -804 -232 0
-235 804 0
-235 232 0
236 -36 -24 0
-236 36 0
-236 24 0
237 -236 -33 0
-237 236 0
-237 33 0
238 -805 -235 0
-238 805 0
-238 235 0
239 -45 -703 0
-239 45 0
-239 703 0
240 -239 -34 0
-240 239 0
-240 34 0
241 -806 -238 0
-241 806 0
-241 238 0
242 -16 -759 0
-242 16 0
-242 759 0
243 -242 -807 0
-243 242 0
-243 807 0
244 -808 -241 0
-244 808 0
-244 241 0
245 -36 -12 0
-245 36 0
-245 12 0
246 -245 -27 0
-246 245 0
-246 27 0
247 -809 -244 0
-247 809 0
-247 244 0
248 -26 -7 0
-248 26 0
-248 7 0
249 -248 -3 0
-249 248 0
-249 3 0
250 -810 -247 0
-250 810 0
-250 247 0
251 -726 -5 0
-251 726 0
-251 5 0
252 -251 -760 0
-252 251 0
-252 760 0
253 -811 -250 0
-253 811 0
-253 250 0
254 -716 -702 0
-254 716 0
-254 702 0
255 -254 -10 0
-255 254 0
-255 10 0
256 -812 -253 0
-256 812 0
-256 253 0
257 -28 -813 0
-257 28 0
-257 813 0
258 -257 -798 0
-258 257 0
-258 798 0
259 -814 -256 0
-259 814 0
-259 256 0
260 -50 -785 0
-260 50 0
-260 785 0
261 -260 -807 0
-261 260 0
-261 807 0
262 -815 -259 0
-262 815 0
-262 259 0
263 -45 -751 0
-263 45 0
-263 751 0
264 -263 -8 0
-264 263 0
-264 8 0
265 -816 -262 0
-265 816 0
-265 262 0
266 -43 -20 0
-266 43 0
-266 20 0
267 -266 -38 0
-267 266 0
-267 38 0
268 -817 -265 0
-268 817 0
-268 265 0
269 -40 -770 0
-269 40 0
-269 770 0
270 -269 -6 0
-270 269 0
-270 6 0
271 -818 -268 0
-271 818 0
-271 268 0
272 -714 -733 0
-272 714 0
-272 733 0
273 -272 -744 0
-273 272 0
-273 744 0
274 -819 -271 0
-274 819 0
-274 271 0
275 -735 -1 0
-275 735 0
-275 1 0
276 -275 -798 0
-276 275 0
-276 798 0
277 -820 -274 0
-277 820 0
-277 274 0
278 -8 -7 0
-278 8 0
-278 7 0
279 -278 -3 0
-279 278 0
-279 3 0
280 -821 -277 0
-280 821 0
-280 277 0
281 -44 -22 0
-281 44 0
-281 22 0
282 -281 -17 0
-282 281 0
-282 17 0
283 -822 -280 0
-283 822 0
-283 280 0
284 -37 -763 0
-284 37 0
-284 763 0
285 -284 -39 0
-285 284 0
-285 39 0
286 -823 -283 0
-286 823 0
-286 283 0
287 -746 -37 0
-287 746 0
-287 37 0
288 -287 -759 0
-288 287 0
-288 759 0
289 -824 -286 0
-289 824 0
-289 286 0
290 -28 -25 0
-290 28 0
-290 25 0
291 -290 -18 0
-291 290 0
-291 18 0
292 -825 -289 0
-292 825 0
-292 289 0
293 -813 -743 0
-293 813 0
-293 743 0
294 -293 -729 0
-294 293 0
-294 729 0
295 -826 -292 0
-295 826 0
-295 292 0
296 -44 -28 0
-296 44 0
-296 28 0
297 -296 -827 0
-297 296 0
-297 827 0
298 -828 -295 0
-298 828 0
-298 295 0
299 -780 -16 0
-299 780 0
-299 16 0
300 -299 -760 0
-300 299 0
-300 760 0
301 -829 -298 0
-301 829 0
-301 298 0
302 -46 -830 0
-302 46 0
-302 830 0
303 -302 -760 0
-303 302 0
-303 760 0
304 -831 -301 0
-304 831 0
-304 301 0
305 -807 -13 0
-305 807 0
-305 13 0
306 -305 -3 0
-306 305 0
-306 3 0
307 -832 -304 0
-307 832 0
-307 304 0
308 -41 -9 0
-308 41 0
-308 9 0
309 -308 -710 0
-309 308 0
-309 710 0
310 -833 -307 0
-310 833 0
-310 307 0
311 -744 -726 0
-311 744 0
-311 726 0
312 -311 -22 0
-312 311 0
-312 22 0
313 -834 -310 0
-313 834 0
-313 310 0
314 -813 -11 0
-314 813 0
-314 11 0
315 -314 -34 0
-315 314 0
-315 34 0
316 -835 -313 0
-316 835 0
-316 313 0
317 -33 -13 0
-317 33 0
-317 13 0
318 -317 -39 0
-318 317 0
-318 39 0
319 -836 -316 0
-319 836 0
-319 316 0
320 -18 -14 0
-320 18 0
-320 14 0
321 -320 -760 0
-321 320 0
-321 760 0
322 -837 -319 0
-322 837 0
-322 319 0
323 -780 -726 0
-323 780 0
-323 726 0
324 -323 -747 0
-324 323 0
-324 747 0
325 -838 -322 0
-325 838 0
-325 322 0
326 -760 -22 0
-326 760 0
-326 22 0
327 -326 -8 0
-327 326 0
-327 8 0
328 -839 -325 0
-328 839 0
-328 325 0
329 -37 -5 0
-329 37 0
-329 5 0
330 -329 -702 0
-330 329 0
-330 702 0
331 -840 -328 0
-331 840 0
-331 328 0
332 -765 -41 0
-332 765 0
-332 41 0
333 -332 -706 0
-333 332 0
-333 706 0
334 -841 -331 0
-334 841 0
-334 331 0
335 -753 -763 0
-335 753 0
-335 763 0
336 -335 -7 0
-336 335 0
-336 7 0
337 -842 -334 0
-337 842 0
-337 334 0
338 -36 -830 0
-338 36 0
-338 830 0
339 -338 -731 0
-339 338 0
-339 731 0
340 -843 -337 0
-340 843 0
-340 337 0
341 -731 -801 0
-341 731 0
-341 801 0
342 -341 -6 0
-342 341 0
-342 6 0
343 -844 -340 0
-343 844 0
-343 340 0
344 -709 -759 0
-344 709 0
-344 759 0
345 -344 -34 0
-345 344 0
-345 34 0
346 -845 -343 0
-346 845 0
-346 343 0
347 -765 -716 0
-347 765 0
-347 716 0
348 -347 -22 0
-348 347 0
-348 22 0
349 -846 -346 0
-349 846 0
-349 346 0
350 -34 -759 0
-350 34 0
-350 759 0
351 -350 -38 0
-351 350 0
-351 38 0
352 -847 -349 0
-352 847 0
-352 349 0
353 -49 -792 0
-353 49 0
-353 792 0
354 -353 -776 0
-354 353 0
-354 776 0
355 -848 -352 0
-355 848 0
-355 352 0
356 -40 -776 0
-356 40 0
-356 776 0
357 -356 -706 0
-357 356 0
-357 706 0
358 -849 -355 0
-358 849 0
-358 355 0
359 -40 -792 0
-359 40 0
-359 792 0
360 -359 -7 0
-360 359 0
-360 7 0
361 -850 -358 0
-361 850 0
-361 358 0
362 -15 -733 0
-362 15 0
-362 733 0
363 -362 -6 0
-363 362 0
-363 6 0
364 -851 -361 0
-364 851 0
-364 361 0
365 -783 -726 0
-365 783 0
-365 726 0
366 -365 -2 0
-366 365 0
-366 2 0
367 -852 -364 0
-367 852 0
-367 364 0
368 -751 -723 0
-368 751 0
-368 723 0
369 -368 -38 0
-369 368 0
-369 38 0
370 -853 -367 0
-370 853 0
-370 367 0
371 -729 -5 0
-371 729 0
-371 5 0
372 -371 -706 0
-372 371 0
-372 706 0
373 -854 -370 0
-373 854 0
-373 370 0
374 -746 -755 0
-374 746 0
-374 755 0
375 -374 -766 0
-375 374 0
-375 766 0
376 -855 -373 0
-376 855 0
-376 373 0
377 -765 -813 0
-377 765 0
-377 813 0
378 -377 -24 0
-378 377 0
-378 24 0
379 -856 -376 0
-379 856 0
-379 376 0
380 -19 -733 0
-380 19 0
-380 733 0
381 -380 -776 0
-381 380 0
-381 776 0
382 -857 -379 0
-382 857 0
-382 379 0
383 -714 -9 0
-383 714 0
-383 9 0
384 -383 -33 0
-384 383 0
-384 33 0
385 -858 -382 0
-385 858 0
-385 382 0
386 -703 -830 0
-386 703 0
-386 830 0
387 -386 -25 0
-387 386 0
-387 25 0
388 -859 -385 0
-388 859 0
-388 385 0
389 -35 -830 0
-389 35 0
-389 830 0
390 -389 -34 0
-390 389 0
-390 34 0
391 -860 -388 0
-391 860 0
-391 388 0
392 -714 -712 0
-392 714 0
-392 712 0
393 -392 -726 0
-393 392 0
-393 726 0
394 -861 -391 0
-394 861 0
-394 391 0
395 -768 -709 0
-395 768 0
-395 709 0
396 -395 -731 0
-396 395 0
-396 731 0
397 -862 -394 0
-397 862 0
-397 394 0
398 -39 -21 0
-398 39 0
-398 21 0
399 -398 -6 0
-399 398 0
-399 6 0
400 -863 -397 0
-400 863 0
-400 397 0
401 -770 -34 0
-401 770 0
-401 34 0
402 -401 -32 0
-402 401 0
-402 32 0
403 -864 -400 0
-403 864 0
-403 400 0
404 -14 -2 0
-404 14 0
-404 2 0
405 -404 -798 0
-405 404 0
-405 798 0
406 -865 -403 0
-406 865 0
-406 403 0
407 -46 -866 0
-407 46 0
-407 866 0
408 -407 -766 0
-408 407 0
-408 766 0
409 -867 -406 0
-409 867 0
-409 406 0
410 -16 -13 0
-410 16 0
-410 13 0
411 -410 -29 0
-411 410 0
-411 29 0
412 -868 -409 0
-412 868 0
-412 409 0
413 -869 -28 0
-413 869 0
-413 28 0
414 -413 -27 0
-414 413 0
-414 27 0
415 -870 -412 0
-415 870 0
-415 412 0
416 -792 -712 0
-416 792 0
-416 712 0
417 -416 -23 0
-417 416 0
-417 23 0
418 -871 -415 0
-418 871 0
-418 415 0
419 -49 -709 0
-419 49 0
-419 709 0
420 -419 -706 0
-420 419 0
-420 706 0
421 -872 -418 0
-421 872 0
-421 418 0
422 -783 -743 0
-422 783 0
-422 743 0
423 -422 -32 0
-423 422 0
-423 32 0
424 -873 -421 0
-424 873 0
-424 421 0
425 -11 -759 0
-425 11 0
-425 759 0
426 -425 -776 0
-426 425 0
-426 776 0
427 -874 -424 0
-427 874 0
-427 424 0
428 -44 -746 0
-428 44 0
-428 746 0
429 -428 -719 0
-429 428 0
-429 719 0
430 -875 -427 0
-430 875 0
-430 427 0
431 -46 -28 0
-431 46 0
-431 28 0
432 -431 -776 0
-432 431 0
-432 776 0
433 -876 -430 0
-433 876 0
-433 430 0
434 -19 -877 0
-434 19 0
-434 877 0
435 -434 -712 0
-435 434 0
-435 712 0
436 -878 -433 0
-436 878 0
-436 433 0
437 -149 -21 0
-437 149 0
-437 21 0
438 -879 -436 0
-438 879 0
-438 436 0
439 -735 -737 0
-439 735 0
-439 737 0
440 -439 -8 0
-440 439 0
-440 8 0
441 -880 -438 0
-441 880 0
-441 438 0
442 -813 -877 0
-442 813 0
-442 877 0
443 -442 -776 0
-443 442 0
-443 776 0
444 -881 -441 0
-444 881 0
-444 441 0
445 -31 -14 0
-445 31 0
-445 14 0
446 -445 -27 0
-446 445 0
-446 27 0
447 -882 -444 0
-447 882 0
-447 444 0
448 -29 -830 0
-448 29 0
-448 830 0
449 -448 -759 0
-449 448 0
-449 759 0
450 -883 -447 0
-450 883 0
-450 447 0
451 -45 -712 0
-451 45 0
-451 712 0
452 -451 -710 0
-452 451 0
-452 710 0
453 -884 -450 0
-453 884 0
-453 450 0
454 -813 -701 0
-454 813 0
-454 701 0
455 -454 -760 0
-455 454 0
-455 760 0
456 -885 -453 0
-456 885 0
-456 453 0
457 -47 -24 0
-457 47 0
-457 24 0
458 -457 -30 0
-458 457 0
-458 30 0
459 -886 -456 0
-459 886 0
-459 456 0
460 -768 -36 0
-460 768 0
-460 36 0
461 -460 -24 0
-461 460 0
-461 24 0
462 -887 -459 0
-462 887 0
-462 459 0
463 -723 -21 0
-463 723 0
-463 21 0
464 -463 -731 0
-464 463 0
-464 731 0
465 -888 -462 0
-465 888 0
-465 462 0
466 -768 -44 0
-466 768 0
-466 44 0
467 -466 -38 0
-467 466 0
-467 38 0
468 -889 -465 0
-468 889 0
-468 465 0
469 -763 -723 0
-469 763 0
-469 723 0
470 -469 -890 0
-470 469 0
-470 890 0
471 -891 -468 0
-471 891 0
-471 468 0
472 -783 -717 0
-472 783 0
-472 717 0
473 -472 -759 0
-473 472 0
-473 759 0
474 -892 -471 0
-474 892 0
-474 471 0
475 -746 -801 0
-475 746 0
-475 801 0
476 -475 -759 0
-476 475 0
-476 759 0
477 -893 -474 0
-477 893 0
-477 474 0
478 -735 -703 0
-478 735 0
-478 703 0
479 -478 -706 0
-479 478 0
-479 706 0
480 -894 -477 0
-480 894 0
-480 477 0
481 -723 -18 0
-481 723 0
-481 18 0
482 -481 -3 0
-482 481 0
-482 3 0
483 -895 -480 0
-483 895 0
-483 480 0
484 -29 -877 0
-484 29 0
-484 877 0
485 -484 -744 0
-485 484 0
-485 744 0
486 -896 -483 0
-486 896 0
-486 483 0
487 -45 -24 0
-487 45 0
-487 24 0
488 -487 -706 0
-488 487 0
-488 706 0
489 -897 -486 0
-489 897 0
-489 486 0
490 -47 -735 0
-490 47 0
-490 735 0
491 -490 -701 0
-491 490 0
-491 701 0
492 -898 -489 0
-492 898 0
-492 489 0
493 -50 -740 0
-493 50 0
-493 740 0
494 -493 -31 0
-494 493 0
-494 31 0
495 -899 -492 0
-495 899 0
-495 492 0
496 -12 -2 0
-496 12 0
-496 2 0
497 -496 -17 0
-497 496 0
-497 17 0
498 -900 -495 0
-498 900 0
-498 495 0
499 -813 -16 0
-499 813 0
-499 16 0
500 -499 -48 0
-500 499 0
-500 48 0
501 -901 -498 0
-501 901 0
-501 498 0
502 -792 -14 0
-502 792 0
-502 14 0
503 -502 -17 0
-503 502 0
-503 17 0
504 -902 -501 0
-504 902 0
-504 501 0
505 -783 -47 0
-505 783 0
-505 47 0
506 -505 -8 0
-506 505 0
-506 8 0
507 -903 -504 0
-507 903 0
-507 504 0
508 -15 -4 0
-508 15 0
-508 4 0
509 -508 -18 0
-509 508 0
-509 18 0
510 -904 -507 0
-510 904 0
-510 507 0
511 -43 -753 0
-511 43 0
-511 753 0
512 -511 -759 0
-512 511 0
-512 759 0
513 -905 -510 0
-513 905 0
-513 510 0
514 -827 -737 0
-514 827 0
-514 737 0
515 -514 -773 0
-515 514 0
-515 773 0
516 -906 -513 0
-516 906 0
-516 513 0
517 -41 -25 0
-517 41 0
-517 25 0
518 -517 -23 0
-518 517 0
-518 23 0
519 -907 -516 0
-519 907 0
-519 516 0
520 -733 -5 0
-520 733 0
-520 5 0
521 -520 -890 0
-521 520 0
-521 890 0
522 -908 -519 0
-522 908 0
-522 519 0
523 -34 -23 0
-523 34 0
-523 23 0
524 -523 -2 0
-524 523 0
-524 2 0
525 -909 -522 0
-525 909 0
-525 522 0
526 -31 -737 0
-526 31 0
-526 737 0
527 -526 -747 0
-527 526 0
-527 747 0
528 -910 -525 0
-528 910 0
-528 525 0
529 -14 -759 0
-529 14 0
-529 759 0
530 -529 -766 0
-530 529 0
-530 766 0
531 -911 -528 0
-531 911 0
-531 528 0
532 -755 -766 0
-532 755 0
-532 766 0
533 -532 -38 0
-533 532 0
-533 38 0
534 -912 -531 0
-534 912 0
-534 531 0
535 -6 -1 0
-535 6 0
-535 1 0
536 -535 -710 0
-536 535 0
-536 710 0
537 -913 -534 0
-537 913 0
-537 534 0
538 -783 -45 0
-538 783 0
-538 45 0
539 -538 -38 0
-539 538 0
-539 38 0
540 -914 -537 0
-540 914 0
-540 537 0
541 -827 -46 0
-541 827 0
-541 46 0
542 -541 -3 0
-542 541 0
-542 3 0
543 -915 -540 0
-543 915 0
-543 540 0
544 -753 -781 0
-544 753 0
-544 781 0
545 -544 -38 0
-545 544 0
-545 38 0
546 -916 -543 0
-546 916 0
-546 543 0
547 -751 -1 0
-547 751 0
-547 1 0
548 -547 -766 0
-548 547 0
-548 766 0
549 -917 -546 0
-549 917 0
-549 546 0
550 -740 -743 0
-550 740 0
-550 743 0
551 -550 -27 0
-551 550 0
-551 27 0
552 -918 -549 0
-552 918 0
-552 549 0
553 -768 -712 0
-553 768 0
-553 712 0
554 -553 -706 0
-554 553 0
-554 706 0
555 -919 -552 0
-555 919 0
-555 552 0
556 -813 -830 0
-556 813 0
-556 830 0
557 -556 -714 0
-557 556 0
-557 714 0
558 -920 -555 0
-558 920 0
-558 555 0
559 -15 -743 0
-559 15 0
-559 743 0
560 -559 -31 0
-560 559 0
-560 31 0
561 -921 -558 0
-561 921 0
-561 558 0
562 -30 -729 0
-562 30 0
-562 729 0
563 -562 -11 0
-563 562 0
-563 11 0
564 -922 -561 0
-564 922 0
-564 561 0
565 -710 -737 0
-565 710 0
-565 737 0
566 -565 -8 0
-566 565 0
-566 8 0
567 -923 -564 0
-567 923 0
-567 564 0
568 -792 -24 0
-568 792 0
-568 24 0
569 -568 -760 0
-569 568 0
-569 760 0
570 -924 -567 0
-570 924 0
-570 567 0
571 -20 -6 0
-571 20 0
-571 6 0
572 -571 -766 0
-572 571 0
-572 766 0
573 -925 -570 0
-573 925 0
-573 570 0
574 -37 -729 0
-574 37 0
-574 729 0
575 -574 -48 0
-575 574 0
-575 48 0
576 -926 -573 0
-576 926 0
-576 573 0
577 -729 -28 0
-577 729 0
-577 28 0
578 -577 -30 0
-578 577 0
-578 30 0
579 -927 -576 0
-579 927 0
-579 576 0
580 -47 -768 0
-580 47 0
-580 768 0
581 -580 -710 0
-581 580 0
-581 710 0
582 -928 -579 0
-582 928 0
-582 579 0
583 -755 -763 0
-583 755 0
-583 763 0
584 -583 -8 0
-584 583 0
-584 8 0
585 -929 -582 0
-585 929 0
-585 582 0
586 -45 -15 0
-586 45 0
-586 15 0
587 -586 -801 0
-587 586 0
-587 801 0
588 -930 -585 0
-588 930 0
-588 585 0
589 -869 -735 0
-589 869 0
-589 735 0
590 -589 -38 0
-590 589 0
-590 38 0
591 -931 -588 0
-591 931 0
-591 588 0
592 -24 -21 0
-592 24 0
-592 21 0
593 -592 -773 0
-593 592 0
-593 773 0
594 -932 -591 0
-594 932 0
-594 591 0
595 -499 -29 0
-595 499 0
-595 29 0
596 -933 -594 0
-596 933 0
-596 594 0
597 -9 -830 0
-597 9 0
-597 830 0
598 -597 -6 0
-598 597 0
-598 6 0
599 -934 -596 0
-599 934 0
-599 596 0
600 -747 -4 0
-600 747 0
-600 4 0
601 -600 -23 0
-601 600 0
-601 23 0
602 -935 -599 0
-602 935 0
-602 599 0
603 -48 -801 0
-603 48 0
-603 801 0
604 -603 -38 0
-604 603 0
-604 38 0
605 -936 -602 0
-605 936 0
-605 602 0
606 -10 -5 0
-606 10 0
-606 5 0
607 -606 -747 0
-607 606 0
-607 747 0
608 -937 -605 0
-608 937 0
-608 605 0
609 -45 -12 0
-609 45 0
-609 12 0
610 -609 -807 0
-610 609 0
-610 807 0
611 -938 -608 0
-611 938 0
-611 608 0
612 -866 -731 0
-612 866 0
-612 731 0
613 -612 -747 0
-613 612 0
-613 747 0
614 -939 -611 0
-614 939 0
-614 611 0
615 -723 -706 0
-615 723 0
-615 706 0
616 -615 -27 0
-616 615 0
-616 27 0
617 -940 -614 0
-617 940 0
-617 614 0
618 -44 -37 0
-618 44 0
-618 37 0
619 -618 -1 0
-619 618 0
-619 1 0
620 -941 -617 0
-620 941 0
-620 617 0
621 -11 -733 0
-621 11 0
-621 733 0
622 -621 -760 0
-622 621 0
-622 760 0
623 -942 -620 0
-623 942 0
-623 620 0
624 -717 -813 0
-624 717 0
-624 813 0
625 -624 -763 0
-625 624 0
-625 763 0
626 -943 -623 0
-626 943 0
-626 623 0
627 -813 -703 0
-627 813 0
-627 703 0
628 -627 -760 0
-628 627 0
-628 760 0
629 -944 -626 0
-629 944 0
-629 626 0
630 -597 -50 0
-630 597 0
-630 50 0
631 -945 -629 0
-631 945 0
-631 629 0
632 -49 -12 0
-632 49 0
-632 12 0
633 -632 -744 0
-633 632 0
-633 744 0
634 -946 -631 0
-634 946 0
-634 631 0
635 -729 -12 0
-635 729 0
-635 12 0
636 -635 -30 0
-636 635 0
-636 30 0
637 -947 -634 0
-637 947 0
-637 634 0
638 -41 -33 0
-638 41 0
-638 33 0
639 -638 -773 0
-639 638 0
-639 773 0
640 -948 -637 0
-640 948 0
-640 637 0
641 -729 -20 0
-641 729 0
-641 20 0
642 -641 -35 0
-642 641 0
-642 35 0
643 -949 -640 0
-643 949 0
-643 640 0
644 -733 -702 0
-644 733 0
-644 702 0
645 -644 -25 0
-645 644 0
-645 25 0
646 -950 -643 0
-646 950 0
-646 643 0
647 -768 -755 0
-647 768 0
-647 755 0
648 -647 -26 0
-648 647 0
-648 26 0
649 -951 -646 0
-649 951 0
-649 646 0
650 -33 -23 0
-650 33 0
-650 23 0
651 -650 -26 0
-651 650 0
-651 26 0
652 -952 -649 0
-652 952 0
-652 649 0
653 -50 -702 0
-653 50 0
-653 702 0
654 -653 -737 0
-654 653 0
-654 737 0
655 -953 -652 0
-655 953 0
-655 652 0
656 -740 -726 0
-656 740 0
-656 726 0
657 -656 -26 0
-657 656 0
-657 26 0
658 -954 -655 0
-658 954 0
-658 655 0
659 -717 -877 0
-659 717 0
-659 877 0
660 -659 -747 0
-660 659 0
-660 747 0
661 -955 -658 0
-661 955 0
-661 658 0
662 -43 -21 0
-662 43 0
-662 21 0
663 -662 -737 0
-663 662 0
-663 737 0
664 -956 -661 0
-664 956 0
-664 661 0
665 -785 -1 0
-665 785 0
-665 1 0
666 -665 -8 0
-666 665 0
-666 8 0
667 -957 -664 0
-667 957 0
-667 664 0
668 -50 -792 0
-668 50 0
-668 792 0
669 -668 -726 0
-669 668 0
-669 726 0
670 -958 -667 0
-670 958 0
-670 667 0
671 -751 -4 0
-671 751 0
-671 4 0
672 -671 -869 0
-672 671 0
-672 869 0
673 -959 -670 0
-673 959 0
-673 670 0
674 -47 -1 0
-674 47 0
-674 1 0
675 -674 -766 0
-675 674 0
-675 766 0
676 -960 -673 0
-676 960 0
-676 673 0
677 -866 -1 0
-677 866 0
-677 1 0
678 -677 -27 0
-678 677 0
-678 27 0
679 -961 -676 0
-679 961 0
-679 676 0
680 -43 -792 0
-680 43 0
-680 792 0
681 -680 -710 0
-681 680 0
-681 710 0
682 -962 -679 0
-682 962 0
-682 679 0
683 -44 -41 0
-683 44 0
-683 41 0
684 -683 -7 0
-684 683 0
-684 7 0
685 -963 -682 0
-685 963 0
-685 682 0
686 -49 -723 0
-686 49 0
-686 723 0
687 -686 -773 0
-687 686 0
-687 773 0
688 -964 -685 0
-688 964 0
-688 685 0
689 -792 -703 0
-689 792 0
-689 703 0
690 -689 -10 0
-690 689 0
-690 10 0
691 -965 -688 0
-691 965 0
-691 688 0
692 -36 -877 0
-692 36 0
-692 877 0
693 -692 -33 0
-693 692 0
-693 33 0
694 -966 -691 0
-694 966 0
-694 691 0
695 -46 -751 0
-695 46 0
-695 751 0
696 -695 -726 0
-696 695 0
-696 726 0
697 -967 -694 0
-697 967 0
-697 694 0
698 -751 -709 0
-698 751 0
-698 709 0
699 -698 -723 0
-699 698 0
-699 723 0
700 -968 -697 0
-700 968 0
-700 697 0
-701 -2 0
701 2 0
-702 -1 0
702 1 0
-703 -5 0
703 5 0
-704 -54 0
704 54 0
-705 -52 0
705 52 0
-706 -8 0
706 8 0
-707 -57 0
707 57 0
-708 -60 0
708 60 0
-709 -13 0
709 13 0
-710 -14 0
710 14 0
-711 -63 0
711 63 0
-712 -15 0
712 15 0
-713 -66 0
713 66 0
-714 -18 0
714 18 0
-715 -69 0
715 69 0
-716 -19 0
716 19 0
-717 -21 0
717 21 0
-718 -72 0
718 72 0
-719 -22 0
719 22 0
-720 -75 0
720 75 0
-721 -78 0
721 78 0
-722 -81 0
722 81 0
-723 -24 0
723 24 0
-724 -84 0
724 84 0
-725 -87 0
725 87 0
-726 -31 0
726 31 0
-727 -90 0
727 90 0
-728 -93 0
728 93 0
-729 -29 0
729 29 0
-730 -96 0
730 96 0
-731 -33 0
731 33 0
-732 -99 0
732 99 0
-733 -9 0
733 9 0
-734 -102 0
734 102 0
-735 -34 0
735 34 0
-736 -105 0
736 105 0
-737 -6 0
737 6 0
-738 -108 0
738 108 0
-739 -111 0
739 111 0
-740 -37 0
740 37 0
-741 -114 0
741 114 0
-742 -117 0
742 117 0
-743 -10 0
743 10 0
-744 -39 0
744 39 0
-745 -120 0
745 120 0
-746 -40 0
746 40 0
-747 -11 0
747 11 0
-748 -123 0
748 123 0
-749 -126 0
749 126 0
-750 -129 0
750 129 0
-751 -42 0
751 42 0
-752 -132 0
752 132 0
-753 -41 0
753 41 0
-754 -135 0
754 135 0
-755 -35 0
755 35 0
-756 -138 0
756 138 0
-757 -141 0
757 141 0
-758 -144 0
758 144 0
-759 -7 0
759 7 0
-760 -38 0
760 38 0
-761 -147 0
761 147 0
-762 -150 0
762 150 0
-763 -30 0
763 30 0
-764 -153 0
764 153 0
-765 -47 0
765 47 0
-766 -32 0
766 32 0
-767 -156 0
767 156 0
-768 -45 0
768 45 0
-769 -159 0
769 159 0
-770 -36 0
770 36 0
-771 -162 0
771 162 0
-772 -165 0
772 165 0
-773 -27 0
773 27 0
-774 -168 0
774 168 0
-775 -171 0
775 171 0
-776 -26 0
776 26 0
-777 -174 0
777 174 0
-778 -177 0
778 177 0
-779 -180 0
779 180 0
-780 -44 0
780 44 0
-781 -23 0
781 23 0
-782 -183 0
782 183 0
-783 -49 0
783 49 0
-784 -186 0
784 186 0
-785 -16 0
785 16 0
-786 -189 0
786 189 0
-787 -192 0
787 192 0
-788 -195 0
788 195 0
-789 -198 0
789 198 0
-790 -201 0
790 201 0
-791 -204 0
791 204 0
-792 -28 0
792 28 0
-793 -207 0
793 207 0
-794 -210 0
794 210 0
-795 -213 0
795 213 0
-796 -216 0
796 216 0
-797 -219 0
797 219 0
-798 -17 0
798 17 0
-799 -222 0
799 222 0
-800 -225 0
800 225 0
-801 -25 0
801 25 0
-802 -228 0
802 228 0
-803 -231 0
803 231 0
-804 -234 0
804 234 0
-805 -237 0
805 237 0
-806 -240 0
806 240 0
-807 -48 0
807 48 0
-808 -243 0
808 243 0
-809 -246 0
809 246 0
-810 -249 0
810 249 0
-811 -252 0
811 252 0
-812 -255 0
812 255 0
-813 -20 0
813 20 0
-814 -258 0
814 258 0
-815 -261 0
815 261 0
-816 -264 0
816 264 0
-817 -267 0
817 267 0
-818 -270 0
818 270 0
-819 -273 0
819 273 0
-820 -276 0
820 276 0
-821 -279 0
821 279 0
-822 -282 0
822 282 0
-823 -285 0
823 285 0
-824 -288 0
824 288 0
-825 -291 0
825 291 0
-826 -294 0
826 294 0
-827 -50 0
827 50 0
-828 -297 0
828 297 0
-829 -300 0
829 300 0
-830 -4 0
830 4 0
-831 -303 0
831 303 0
-832 -306 0
832 306 0
-833 -309 0
833 309 0
-834 -312 0
834 312 0
-835 -315 0
835 315 0
-836 -318 0
836 318 0
-837 -321 0
837 321 0
-838 -324 0
838 324 0
-839 -327 0
839 327 0
-840 -330 0
840 330 0
-841 -333 0
841 333 0
-842 -336 0
842 336 0
-843 -339 0
843 339 0
-844 -342 0
844 342 0
-845 -345 0
845 345 0
-846 -348 0
846 348 0
-847 -351 0
847 351 0
-848 -354 0
848 354 0
-849 -357 0
849 357 0
-850 -360 0
850 360 0
-851 -363 0
851 363 0
-852 -366 0
852 366 0
-853 -369 0
853 369 0
-854 -372 0
854 372 0
-855 -375 0
855 375 0
-856 -378 0
856 378 0
-857 -381 0
857 381 0
-858 -384 0
858 384 0
-859 -387 0
859 387 0
-860 -390 0
860 390 0
-861 -393 0
861 393 0
-862 -396 0
862 396 0
-863 -399 0
863 399 0
-864 -402 0
864 402 0
-865 -405 0
865 405 0
-866 -43 0
866 43 0
-867 -408 0
867 408 0
-868 -411 0
868 411 0
-869 -46 0
869 46 0
-870 -414 0
870 414 0
-871 -417 0
871 417 0
-872 -420 0
872 420 0
-873 -423 0
873 423 0
-874 -426 0
874 426 0
-875 -429 0
875 429 0
-876 -432 0
876 432 0
-877 -12 0
877 12 0
-878 -435 0
878 435 0
-879 -437 0
879 437 0
-880 -440 0
880 440 0
-881 -443 0
881 443 0
-882 -446 0
882 446 0
-883 -449 0
883 449 0
-884 -452 0
884 452 0
-885 -455 0
885 455 0
-886 -458 0
886 458 0
-887 -461 0
887 461 0
-888 -464 0
888 464 0
-889 -467 0
889 467 0
-890 -3 0
890 3 0
-891 -470 0
891 470 0
-892 -473 0
892 473 0
-893 -476 0
893 476 0
-894 -479 0
894 479 0
-895 -482 0
895 482 0
-896 -485 0
896 485 0
-897 -488 0
897 488 0
-898 -491 0
898 491 0
-899 -494 0
899 494 0
-900 -497 0
900 497 0
-901 -500 0
901 500 0
-902 -503 0
902 503 0
-903 -506 0
903 506 0
-904 -509 0
904 509 0
-905 -512 0
905 512 0
-906 -515 0
906 515 0
-907 -518 0
907 518 0
-908 -521 0
908 521 0
-909 -524 0
909 524 0
-910 -527 0
910 527 0
-911 -530 0
911 530 0
-912 -533 0
912 533 0
-913 -536 0
913 536 0
-914 -539 0
914 539 0
-915 -542 0
915 542 0
-916 -545 0
916 545 0
-917 -548 0
917 548 0
-918 -551 0
918 551 0
-919 -554 0
919 554 0
-920 -557 0
920 557 0
-921 -560 0
921 560 0
-922 -563 0
922 563 0
-923 -566 0
923 566 0
-924 -569 0
924 569 0
-925 -572 0
925 572 0
-926 -575 0
926 575 0
-927 -578 0
927 578 0
-928 -581 0
928 581 0
-929 -584 0
929 584 0
-930 -587 0
930 587 0
-931 -590 0
931 590 0
-932 -593 0
932 593 0
-933 -595 0
933 595 0
-934 -598 0
934 598 0
-935 -601 0
935 601 0
-936 -604 0
936 604 0
-937 -607 0
937 607 0
-938 -610 0
938 610 0
-939 -613 0
939 613 0
-940 -616 0
940 616 0
-941 -619 0
941 619 0
-942 -622 0
942 622 0
-943 -625 0
943 625 0
-944 -628 0
944 628 0
-945 -630 0
945 630 0
-946 -633 0
946 633 0
-947 -636 0
947 636 0
-948 -639 0
948 639 0
-949 -642 0
949 642 0
-950 -645 0
950 645 0
-951 -648 0
951 648 0
-952 -651 0
952 651 0
-953 -654 0
953 654 0
-954 -657 0
954 657 0
-955 -660 0
955 660 0
-956 -663 0
956 663 0
-957 -666 0
957 666 0
-958 -669 0
958 669 0
-959 -672 0
959 672 0
-960 -675 0
960 675 0
-961 -678 0
961 678 0
-962 -681 0
962 681 0
-963 -684 0
963 684 0
-964 -687 0
964 687 0
-965 -690 0
965 690 0
-966 -693 0
966 693 0
-967 -696 0
967 696 0
-968 -699 0
968 699 0
700 0
